
  16    0


   0   9 2 3 4 5 6 12 13 14 15 
   6   3 11 9 7 
   3   2 10 8 
   3   2 9 8 
   5   1 7 
   4   1 7 
   1   1 16
   3   1 16
  10   1 16
   6   1 16
   9   1 16
   2   1 16
   4   1 16
   6   1 16
   8   1 16
   0   0 
